S = 4;
start = [|14,16,0,0,0,0,0,0,3,0,12,0,0,0,0,0|
7,0,9,0,0,0,0,0,0,0,14,0,0,2,0,0|
0,0,0,0,0,0,0,0,8,0,0,0,0,0,0,0|
6,0,0,0,0,0,0,0,5,9,2,0,11,0,0,0|
0,0,0,0,1,0,8,0,0,15,0,0,0,0,0,0|
0,5,16,0,0,0,7,0,0,0,0,6,0,12,0,11|
0,0,0,0,0,0,12,0,0,0,0,0,0,0,9,0|
0,0,1,0,6,0,0,14,0,0,0,0,15,0,0,0|
4,0,0,0,0,0,0,0,9,0,11,0,0,0,6,0|
0,0,0,0,0,0,0,0,0,0,10,0,0,4,0,0|
0,2,0,0,0,0,6,0,15,8,1,0,0,0,0,0|
0,0,0,0,0,0,0,9,7,3,0,0,0,14,0,15|
16,0,0,0,0,0,0,0,0,11,8,0,0,0,0,1|
5,0,0,0,0,0,0,0,0,0,0,15,0,0,0,16|
0,6,0,0,0,0,0,0,0,0,7,2,0,0,0,0|
0,0,0,0,0,0,0,15,0,10,0,0,0,0,0,0|];